h2o\(3)                                 
   1.00000000000000     
     7.8712481495980642   -0.0392008406650076   -0.0392008406650076
    -0.0421284928414992    7.7820367508646671    0.2636899927780018
    -0.0421284928414992    0.2636899927780018    7.7820367508646671
   O    H 
     1     2
Direct
  0.2430782222165518  0.2471318933443642  0.1971318963443639
  0.2143693652882687  0.3299198725005503  0.2799198605005522
  0.3665524134951814  0.2469482351550870  0.1969482381550866
 
  0.00000000E+00  0.00000000E+00  0.00000000E+00
  0.00000000E+00  0.00000000E+00  0.00000000E+00
  0.00000000E+00  0.00000000E+00  0.00000000E+00
