h2o\(3)
1.0
       10.0000000000         0.0000000000         0.0000000000
        0.0000000000        10.0000000000         0.0000000000
        0.0000000000         0.0000000000        10.0000000000
    O    H
    1    2
Direct
     0.250000000         0.250000000         0.200000003
     0.213000000         0.324000001         0.273999989
     0.361000001         0.250000000         0.200000003
