 graphene33Opt+benzene\(2)              
   1.00000000000000     
     7.4019660633505104    0.0048764802730622    0.1712643663289389
    -3.6986723137972870    6.4085165797569141   -0.2702078830337989
     0.1960446544044362   -0.2337816946751146    8.5901248730779294
   C    H 
    24     6
Selective dynamics
Direct
  0.0000000000000000  0.0000000000000000  0.0225000009999974   F   F   F
  0.2222200040000004  0.1111100019999967  0.0225000009999974   F   F   F
  0.3333300050000005  0.0000000000000000  0.0225000009999974   F   F   F
  0.5555599930000028  0.1111100019999967  0.0225000009999974   F   F   F
  0.6666700239999983  0.0000000000000000  0.0225000009999974   F   F   F
  0.8888900279999987  0.1111100019999967  0.0225000009999974   F   F   F
  0.0000000000000000  0.3333300050000005  0.0225000009999974   F   F   F
  0.2222200040000004  0.4444400069999972  0.0225000009999974   F   F   F
  0.3333300050000005  0.3333300050000005  0.0225000009999974   F   F   F
  0.5555599930000028  0.4444400069999972  0.0225000009999974   F   F   F
  0.6666700239999983  0.3333300050000005  0.0225000009999974   F   F   F
  0.8888900279999987  0.4444400069999972  0.0225000009999974   F   F   F
  0.0000000000000000  0.6666700239999983  0.0225000009999974   F   F   F
  0.2222200040000004  0.7777799959999996  0.0225000009999974   F   F   F
  0.3333300050000005  0.6666700239999983  0.0225000009999974   F   F   F
  0.5555599930000028  0.7777799959999996  0.0225000009999974   F   F   F
  0.6666700239999983  0.6666700239999983  0.0225000009999974   F   F   F
  0.8888900279999987  0.7777799959999996  0.0225000009999974   F   F   F
  0.3183918589280461  0.3336495387084256  0.4493039835430947   T   T   T
  0.4747149881852796  0.2802334976004231  0.4394897772416779   T   T   T
  0.6839092277389746  0.4355135143216525  0.4549823587421582   T   T   T
  0.7363716587698451  0.6442711392812103  0.4820551057651428   T   T   T
  0.5793225974872188  0.6977002902951230  0.4921413044027814   T   T   T
  0.3706394098455301  0.5425357713131581  0.4758524762771265   T   T   T
  0.1552050549270897  0.2121156570920999  0.4363420973117516   T   T   T
  0.4339198734623331  0.1171928035706882  0.4179342350379792   T   T   T
  0.8059023924162030  0.3937235291835819  0.4455441665441035   T   T   T
  0.8992346759811549  0.7658140288943247  0.4942587645624590   T   T   T
  0.6202047852369789  0.8609018986610166  0.5128058646510332   T   T   T
  0.2484795339564121  0.5847394353596544  0.4825068868850762   T   T   T
 
  0.00000000E+00  0.00000000E+00  0.00000000E+00
  0.00000000E+00  0.00000000E+00  0.00000000E+00
  0.00000000E+00  0.00000000E+00  0.00000000E+00
  0.00000000E+00  0.00000000E+00  0.00000000E+00
  0.00000000E+00  0.00000000E+00  0.00000000E+00
  0.00000000E+00  0.00000000E+00  0.00000000E+00
  0.00000000E+00  0.00000000E+00  0.00000000E+00
  0.00000000E+00  0.00000000E+00  0.00000000E+00
  0.00000000E+00  0.00000000E+00  0.00000000E+00
  0.00000000E+00  0.00000000E+00  0.00000000E+00
  0.00000000E+00  0.00000000E+00  0.00000000E+00
  0.00000000E+00  0.00000000E+00  0.00000000E+00
  0.00000000E+00  0.00000000E+00  0.00000000E+00
  0.00000000E+00  0.00000000E+00  0.00000000E+00
  0.00000000E+00  0.00000000E+00  0.00000000E+00
  0.00000000E+00  0.00000000E+00  0.00000000E+00
  0.00000000E+00  0.00000000E+00  0.00000000E+00
  0.00000000E+00  0.00000000E+00  0.00000000E+00
  0.00000000E+00  0.00000000E+00  0.00000000E+00
  0.00000000E+00  0.00000000E+00  0.00000000E+00
  0.00000000E+00  0.00000000E+00  0.00000000E+00
  0.00000000E+00  0.00000000E+00  0.00000000E+00
  0.00000000E+00  0.00000000E+00  0.00000000E+00
  0.00000000E+00  0.00000000E+00  0.00000000E+00
  0.00000000E+00  0.00000000E+00  0.00000000E+00
  0.00000000E+00  0.00000000E+00  0.00000000E+00
  0.00000000E+00  0.00000000E+00  0.00000000E+00
  0.00000000E+00  0.00000000E+00  0.00000000E+00
  0.00000000E+00  0.00000000E+00  0.00000000E+00
  0.00000000E+00  0.00000000E+00  0.00000000E+00
