 graphene33Opt                          
   1.00000000000000     
     7.4055662682794301   -0.0007867953978891    0.0180909556009142
    -3.7034681038264265    6.4182014744247695   -0.0867518115496994
     0.0199437463569270   -0.0990023709292909    8.0645448030601319
   C    H 
    24     6
Selective dynamics
Direct
  0.0000000000000000  0.0000000000000000  0.0225000009999974   F   F   F
  0.2222200040000004  0.1111100019999967  0.0225000009999974   F   F   F
  0.3333300050000005  0.0000000000000000  0.0225000009999974   F   F   F
  0.5555599930000028  0.1111100019999967  0.0225000009999974   F   F   F
  0.6666700239999983  0.0000000000000000  0.0225000009999974   F   F   F
  0.8888900279999987  0.1111100019999967  0.0225000009999974   F   F   F
  0.0000000000000000  0.3333300050000005  0.0225000009999974   F   F   F
  0.2222200040000004  0.4444400069999972  0.0225000009999974   F   F   F
  0.3333300050000005  0.3333300050000005  0.0225000009999974   F   F   F
  0.5555599930000028  0.4444400069999972  0.0225000009999974   F   F   F
  0.6666700239999983  0.3333300050000005  0.0225000009999974   F   F   F
  0.8888900279999987  0.4444400069999972  0.0225000009999974   F   F   F
  0.0000000000000000  0.6666700239999983  0.0225000009999974   F   F   F
  0.2222200040000004  0.7777799959999996  0.0225000009999974   F   F   F
  0.3333300050000005  0.6666700239999983  0.0225000009999974   F   F   F
  0.5555599930000028  0.7777799959999996  0.0225000009999974   F   F   F
  0.6666700239999983  0.6666700239999983  0.0225000009999974   F   F   F
  0.8888900279999987  0.7777799959999996  0.0225000009999974   F   F   F
  0.3099486726624613  0.3400483427062414  0.4368908288658517   T   T   T
  0.4651363348198643  0.2859905508706534  0.4249977418156190   T   T   T
  0.6749570378442878  0.4395173156083976  0.4415273695989489   T   T   T
  0.7290093189307258  0.6470134891614415  0.4706899382528843   T   T   T
  0.5734076988613057  0.7009126587146125  0.4831586710821039   T   T   T
  0.3638911548364334  0.5476269469245846  0.4656794100787071   T   T   T
  0.1460953997667006  0.2207927825263695  0.4211641778309047   T   T   T
  0.4228499369807591  0.1244683931231535  0.3987389096750396   T   T   T
  0.7964888464585830  0.3977812620261643  0.4299993444849585   T   T   T
  0.8928146040061602  0.7668628757151881  0.4839191874266668   T   T   T
  0.6157739554030941  0.8631396651216844  0.5066454664630240   T   T   T
  0.2422583135229427  0.5898290491041187  0.4751212351497723   T   T   T
 
  0.00000000E+00  0.00000000E+00  0.00000000E+00
  0.00000000E+00  0.00000000E+00  0.00000000E+00
  0.00000000E+00  0.00000000E+00  0.00000000E+00
  0.00000000E+00  0.00000000E+00  0.00000000E+00
  0.00000000E+00  0.00000000E+00  0.00000000E+00
  0.00000000E+00  0.00000000E+00  0.00000000E+00
  0.00000000E+00  0.00000000E+00  0.00000000E+00
  0.00000000E+00  0.00000000E+00  0.00000000E+00
  0.00000000E+00  0.00000000E+00  0.00000000E+00
  0.00000000E+00  0.00000000E+00  0.00000000E+00
  0.00000000E+00  0.00000000E+00  0.00000000E+00
  0.00000000E+00  0.00000000E+00  0.00000000E+00
  0.00000000E+00  0.00000000E+00  0.00000000E+00
  0.00000000E+00  0.00000000E+00  0.00000000E+00
  0.00000000E+00  0.00000000E+00  0.00000000E+00
  0.00000000E+00  0.00000000E+00  0.00000000E+00
  0.00000000E+00  0.00000000E+00  0.00000000E+00
  0.00000000E+00  0.00000000E+00  0.00000000E+00
  0.00000000E+00  0.00000000E+00  0.00000000E+00
  0.00000000E+00  0.00000000E+00  0.00000000E+00
  0.00000000E+00  0.00000000E+00  0.00000000E+00
  0.00000000E+00  0.00000000E+00  0.00000000E+00
  0.00000000E+00  0.00000000E+00  0.00000000E+00
  0.00000000E+00  0.00000000E+00  0.00000000E+00
  0.00000000E+00  0.00000000E+00  0.00000000E+00
  0.00000000E+00  0.00000000E+00  0.00000000E+00
  0.00000000E+00  0.00000000E+00  0.00000000E+00
  0.00000000E+00  0.00000000E+00  0.00000000E+00
  0.00000000E+00  0.00000000E+00  0.00000000E+00
  0.00000000E+00  0.00000000E+00  0.00000000E+00
