 graphene33Opt+benzene                  
   1.00000000000000     
     7.4049000740000004    0.0000000000000000    0.0000000000000000
    -3.7024500370000002    6.4128315766000004    0.0000000000000000
     0.0000000000000000    0.0000000000000000    7.9981999397000001
   C    H 
    24     6
Selective dynamics
Direct
  0.0000000000000000  0.0000000000000000  0.0225000009999974   F   F   F
  0.2222200040000004  0.1111100019999967  0.0225000009999974   F   F   F
  0.3333300050000005  0.0000000000000000  0.0225000009999974   F   F   F
  0.5555599930000028  0.1111100019999967  0.0225000009999974   F   F   F
  0.6666700239999983  0.0000000000000000  0.0225000009999974   F   F   F
  0.8888900279999987  0.1111100019999967  0.0225000009999974   F   F   F
  0.0000000000000000  0.3333300050000005  0.0225000009999974   F   F   F
  0.2222200040000004  0.4444400069999972  0.0225000009999974   F   F   F
  0.3333300050000005  0.3333300050000005  0.0225000009999974   F   F   F
  0.5555599930000028  0.4444400069999972  0.0225000009999974   F   F   F
  0.6666700239999983  0.3333300050000005  0.0225000009999974   F   F   F
  0.8888900279999987  0.4444400069999972  0.0225000009999974   F   F   F
  0.0000000000000000  0.6666700239999983  0.0225000009999974   F   F   F
  0.2222200040000004  0.7777799959999996  0.0225000009999974   F   F   F
  0.3333300050000005  0.6666700239999983  0.0225000009999974   F   F   F
  0.5555599930000028  0.7777799959999996  0.0225000009999974   F   F   F
  0.6666700239999983  0.6666700239999983  0.0225000009999974   F   F   F
  0.8888900279999987  0.7777799959999996  0.0225000009999974   F   F   F
  0.6026600000000002  0.7372499700000006  0.3845789998284305   F   F   T
  0.3638600109999999  0.6000499729999973  0.3829023122694386   F   F   T
  0.2627399859999997  0.3612900079999974  0.3837525362726510   F   F   T
  0.4004099969999970  0.2597199980000013  0.3882351147788433   F   F   T
  0.6392099859999973  0.3969199960000012  0.3874398447701430   F   F   T
  0.7403299810000021  0.6356899740000017  0.3908848232125166   F   F   T
  0.6684998758199481  0.9779861274499957  0.1772926590871070   T   T   T
  0.2260911955439637  0.7632099486946183  0.1739970302457214   T   T   T
  0.0940832314469382  0.2592829004896135  0.3718102362519293   T   T   T
  0.3239120777515278  0.0904703802464302  0.3775619208931964   T   T   T
  0.8579424737582403  0.4428911037717738  0.1803503278056123   T   T   T
  0.9093089796628641  0.7348620715811987  0.3876728473884918   T   T   T
 
  0.00000000E+00  0.00000000E+00  0.00000000E+00
  0.00000000E+00  0.00000000E+00  0.00000000E+00
  0.00000000E+00  0.00000000E+00  0.00000000E+00
  0.00000000E+00  0.00000000E+00  0.00000000E+00
  0.00000000E+00  0.00000000E+00  0.00000000E+00
  0.00000000E+00  0.00000000E+00  0.00000000E+00
  0.00000000E+00  0.00000000E+00  0.00000000E+00
  0.00000000E+00  0.00000000E+00  0.00000000E+00
  0.00000000E+00  0.00000000E+00  0.00000000E+00
  0.00000000E+00  0.00000000E+00  0.00000000E+00
  0.00000000E+00  0.00000000E+00  0.00000000E+00
  0.00000000E+00  0.00000000E+00  0.00000000E+00
  0.00000000E+00  0.00000000E+00  0.00000000E+00
  0.00000000E+00  0.00000000E+00  0.00000000E+00
  0.00000000E+00  0.00000000E+00  0.00000000E+00
  0.00000000E+00  0.00000000E+00  0.00000000E+00
  0.00000000E+00  0.00000000E+00  0.00000000E+00
  0.00000000E+00  0.00000000E+00  0.00000000E+00
  0.00000000E+00  0.00000000E+00  0.00000000E+00
  0.00000000E+00  0.00000000E+00  0.00000000E+00
  0.00000000E+00  0.00000000E+00  0.00000000E+00
  0.00000000E+00  0.00000000E+00  0.00000000E+00
  0.00000000E+00  0.00000000E+00  0.00000000E+00
  0.00000000E+00  0.00000000E+00  0.00000000E+00
  0.00000000E+00  0.00000000E+00  0.00000000E+00
  0.00000000E+00  0.00000000E+00  0.00000000E+00
  0.00000000E+00  0.00000000E+00  0.00000000E+00
  0.00000000E+00  0.00000000E+00  0.00000000E+00
  0.00000000E+00  0.00000000E+00  0.00000000E+00
  0.00000000E+00  0.00000000E+00  0.00000000E+00
