graphite                                
   1.00000000000000     
     4.9165329673039491    0.0186669719335951   -0.0000000000000000
    -2.4421004116957743    4.2671759341981534   -0.0000000000000000
     0.0000000000000000    0.0000000000000000    3.2024054122807009
   C 
     8
Direct
 -0.0004618696616495  0.0004618696616484  0.0731699990000010
  0.3337918746616499  0.1662081253383511  0.0731699990000010
  0.4995381303383505  0.0004618696616484  0.0731699990000010
  0.8337918456616511  0.1662081253383511  0.0731699990000010
 -0.0004618696616495  0.5004618696616483  0.0731699990000010
  0.3337918746616499  0.6662081543383499  0.0731699990000010
  0.4995381303383506  0.5004618696616483  0.0731699990000010
  0.8337918456616511  0.6662081543383499  0.0731699990000010
 
  0.00000000E+00  0.00000000E+00  0.00000000E+00
  0.00000000E+00  0.00000000E+00  0.00000000E+00
  0.00000000E+00  0.00000000E+00  0.00000000E+00
  0.00000000E+00  0.00000000E+00  0.00000000E+00
  0.00000000E+00  0.00000000E+00  0.00000000E+00
  0.00000000E+00  0.00000000E+00  0.00000000E+00
  0.00000000E+00  0.00000000E+00  0.00000000E+00
  0.00000000E+00  0.00000000E+00  0.00000000E+00
