Automatic mesh
0
Gama Centered
8 8 1
0 0 0
