grapheneMin
1.0
        2.4600000381         0.0000000000         0.0000000000
       -1.2300000191         2.1304225263         0.0000000000
        0.0000000000         0.0000000000         2.4600000381
    C
    2
Direct
     0.000000000         0.000000000         0.073169947
     0.666670024         0.333330005         0.073169947
