benzene                                 
   1.00000000000000     
     9.4509386681249214   -0.1067524894289525    0.0066504527956198
    -0.1067434033330428    9.9711227698131051   -0.0331606613107666
     0.0066487757626347   -0.0331549985177900    9.4338719782124230
   C    H 
     6     6
Direct
  0.4051441205570945  0.3309453067693002  0.5114131261407761
  0.4804692446464511  0.3380479542981864  0.3839964700078219
  0.6258555630406709  0.3668656192402007  0.3853743548269890
  0.6958527773741768  0.3886022298264873  0.5141635981002439
  0.6205232579670306  0.3815055907983225  0.6415822426060322
  0.4751411633681925  0.3526816669386808  0.6402061705401593
  0.2916657688236257  0.3084138602776633  0.5103417238331613
  0.4258413170419546  0.3210699209359585  0.2834715847862027
  0.6846508006667199  0.3724044906533304  0.2859265107465825
  0.8093308979680497  0.4111423160875532  0.5152407142473392
  0.6751541253797008  0.3984822202998738  0.7421085881905264
  0.4163409891663486  0.3471388748744466  0.7396549099741596
 
  0.00000000E+00  0.00000000E+00  0.00000000E+00
  0.00000000E+00  0.00000000E+00  0.00000000E+00
  0.00000000E+00  0.00000000E+00  0.00000000E+00
  0.00000000E+00  0.00000000E+00  0.00000000E+00
  0.00000000E+00  0.00000000E+00  0.00000000E+00
  0.00000000E+00  0.00000000E+00  0.00000000E+00
  0.00000000E+00  0.00000000E+00  0.00000000E+00
  0.00000000E+00  0.00000000E+00  0.00000000E+00
  0.00000000E+00  0.00000000E+00  0.00000000E+00
  0.00000000E+00  0.00000000E+00  0.00000000E+00
  0.00000000E+00  0.00000000E+00  0.00000000E+00
  0.00000000E+00  0.00000000E+00  0.00000000E+00
