benzene
1.0
       10.0000000000         0.0000000000         0.0000000000
        0.0000000000        10.0000000000         0.0000000000
        0.0000000000         0.0000000000        10.0000000000
    C    H
    6    6
Direct
     0.500000000         0.500000000         0.500000000
     0.615890026         0.399899989         0.483689994
     0.769249976         0.392289996         0.471910000
     0.867550015         0.510349989         0.461270005
     0.762660027         0.621909976         0.477670014
     0.609080017         0.623430014         0.488990009
     0.393220007         0.462049991         0.512430012
     0.594160020         0.288219988         0.476509988
     0.821340024         0.290890008         0.470400006
     0.978799999         0.490700006         0.445959985
     0.795769989         0.730820000         0.483810008
     0.553040028         0.722689986         0.490759999
