 grapheneV22opt\(2)                     
   1.00000000000000     
     4.9372000694000002    0.0000000000000000    0.0000000000000000
    -2.4686148378000001    4.2757321371000003    0.0000000000000000
     0.0000000000000000    0.0000000000000000    9.9993000031000001
   C    O    H 
     8     1     2
Selective dynamics
Direct
  0.0000000000000000  0.0000000000000000  0.0000000000000000   F   F   F
  0.1666699949999995  0.3333300050000005  0.0000000000000000   F   F   F
  0.0000000000000000  0.5000000000000000  0.0000000000000000   F   F   F
  0.1666699949999995  0.8333299760000017  0.0000000000000000   F   F   F
  0.5000000000000000  0.0000000000000000  0.0000000000000000   F   F   F
  0.6666700239999983  0.3333300050000005  0.0000000000000000   F   F   F
  0.5000000000000000  0.5000000000000000  0.0000000000000000   F   F   F
  0.6666700239999983  0.8333299760000017  0.0000000000000000   F   F   F
  0.2644529113325484  0.5661781143482106  0.3667144099555329   T   T   T
  0.2458090492914841  0.7214036762686150  0.4196090544971697   T   T   T
  0.4532090707511425  0.6889145292516692  0.3142062109045611   T   T   T
 
  0.00000000E+00  0.00000000E+00  0.00000000E+00
  0.00000000E+00  0.00000000E+00  0.00000000E+00
  0.00000000E+00  0.00000000E+00  0.00000000E+00
  0.00000000E+00  0.00000000E+00  0.00000000E+00
  0.00000000E+00  0.00000000E+00  0.00000000E+00
  0.00000000E+00  0.00000000E+00  0.00000000E+00
  0.00000000E+00  0.00000000E+00  0.00000000E+00
  0.00000000E+00  0.00000000E+00  0.00000000E+00
  0.00000000E+00  0.00000000E+00  0.00000000E+00
  0.00000000E+00  0.00000000E+00  0.00000000E+00
  0.00000000E+00  0.00000000E+00  0.00000000E+00
