 grapheneV22opt\(2)                     
   1.00000000000000     
     4.9372000694000002    0.0000000000000000    0.0000000000000000
    -2.4686148378000001    4.2757321371000003    0.0000000000000000
     0.0000000000000000    0.0000000000000000    9.9993000031000001
   C    O    H 
     8     1     2
Selective dynamics
Direct
  0.0000000000000000  0.0000000000000000  0.0000000000000000   F   F   F
  0.1666699949999995  0.3333300050000005  0.0000000000000000   F   F   F
  0.0000000000000000  0.5000000000000000  0.0000000000000000   F   F   F
  0.1666699949999995  0.8333299760000017  0.0000000000000000   F   F   F
  0.5000000000000000  0.0000000000000000  0.0000000000000000   F   F   F
  0.6666700239999983  0.3333300050000005  0.0000000000000000   F   F   F
  0.5000000000000000  0.5000000000000000  0.0000000000000000   F   F   F
  0.6666700239999983  0.8333299760000017  0.0000000000000000   F   F   F
  0.5376511710069000  0.6104777771827484  0.3648617653496891   T   T   T
  0.3305927813040598  0.4303811939068020  0.3507694599187237   T   T   T
  0.6743667540988170  0.5213214313553322  0.3636437512517384   T   T   T
 
  0.00000000E+00  0.00000000E+00  0.00000000E+00
  0.00000000E+00  0.00000000E+00  0.00000000E+00
  0.00000000E+00  0.00000000E+00  0.00000000E+00
  0.00000000E+00  0.00000000E+00  0.00000000E+00
  0.00000000E+00  0.00000000E+00  0.00000000E+00
  0.00000000E+00  0.00000000E+00  0.00000000E+00
  0.00000000E+00  0.00000000E+00  0.00000000E+00
  0.00000000E+00  0.00000000E+00  0.00000000E+00
  0.00000000E+00  0.00000000E+00  0.00000000E+00
  0.00000000E+00  0.00000000E+00  0.00000000E+00
  0.00000000E+00  0.00000000E+00  0.00000000E+00
