SYSTEM = encutOpt
ENCUT = 700
ISTART = 0
ICHRGE =2

PREC = Medium

NELM = 100
NELMIN =5
NELMDL = -5
EDIFF = 1E-04

EDIFFG = -1E-02
NSW = 500
IBRION = 2
ISIF = 2
ISMEAR = 0
SIGNA = 0.1
