Automatic generation
0
Gama Centered
8 	8 	8
0.0 0.0 0.0
