graphite
1.0
        4.9200000763         0.0000000000         0.0000000000
       -2.4600000381         4.2608450527         0.0000000000
        0.0000000000         0.0000000000         2.4600000381
    C
    8
Direct
     0.000000000         0.000000000         0.073169999
     0.333330005         0.166669995         0.073169999
     0.500000000         0.000000000         0.073169999
     0.833329976         0.166669995         0.073169999
     0.000000000         0.500000000         0.073169999
     0.333330005         0.666670024         0.073169999
     0.500000000         0.500000000         0.073169999
     0.833329976         0.666670024         0.073169999
