 grapheneOpt+h2O\(2)                    
   1.00000000000000     
     4.9260997772000001    0.0000000000000000    0.0000000000000000
    -2.4630572735000000    4.2661232849999999    0.0000000000000000
     0.0000000000000000    0.0000000000000000    4.0000000000000000
   C    O    H 
     8     1     2
Selective dynamics
Direct
  0.0000000000000000  0.0000000000000000  0.0584999989999986   F   F   F
  0.3333300050000005  0.1666699949999995  0.0584999989999986   F   F   F
  0.5000000000000000  0.0000000000000000  0.0584999989999986   F   F   F
  0.8333299760000017  0.1666699949999995  0.0584999989999986   F   F   F
  0.0000000000000000  0.5000000000000000  0.0584999989999986   F   F   F
  0.3333300050000005  0.6666700239999983  0.0584999989999986   F   F   F
  0.5000000000000000  0.5000000000000000  0.0584999989999986   F   F   F
  0.8333299760000017  0.6666700239999983  0.0584999989999986   F   F   F
  0.6742259384117205  0.3337617864352643  0.5449726567469704   T   T   T
  0.6131580286808739  0.4846118897183707  0.6101150170352545   T   T   T
  0.8940021850048857  0.4380418340682846  0.6006818007826664   T   T   T
 
  0.00000000E+00  0.00000000E+00  0.00000000E+00
  0.00000000E+00  0.00000000E+00  0.00000000E+00
  0.00000000E+00  0.00000000E+00  0.00000000E+00
  0.00000000E+00  0.00000000E+00  0.00000000E+00
  0.00000000E+00  0.00000000E+00  0.00000000E+00
  0.00000000E+00  0.00000000E+00  0.00000000E+00
  0.00000000E+00  0.00000000E+00  0.00000000E+00
  0.00000000E+00  0.00000000E+00  0.00000000E+00
  0.00000000E+00  0.00000000E+00  0.00000000E+00
  0.00000000E+00  0.00000000E+00  0.00000000E+00
  0.00000000E+00  0.00000000E+00  0.00000000E+00
