 grapheneOpt+h2OP\(2)                   
   1.00000000000000     
     4.9323520880687690    0.0037251428697645   -0.0479495743147898
    -2.4633267327763573    4.2708921436944012    0.0227979027739164
    -0.0277211713563853    0.0072319046246265    6.1327891200487326
   C    O    H 
     8     1     2
Selective dynamics
Direct
  0.0000000000000000  0.0000000000000000  0.0731699990000010   F   F   F
  0.3333300050000005  0.1666699949999995  0.0731699990000010   F   F   F
  0.5000000000000000  0.0000000000000000  0.0731699990000010   F   F   F
  0.8333299760000017  0.1666699949999995  0.0731699990000010   F   F   F
  0.0000000000000000  0.5000000000000000  0.0731699990000010   F   F   F
  0.3333300050000005  0.6666700239999983  0.0731699990000010   F   F   F
  0.5000000000000000  0.5000000000000000  0.0731699990000010   F   F   F
  0.8333299760000017  0.6666700239999983  0.0731699990000010   F   F   F
  0.5119857028929616  0.4751547123456247  0.5595327196600530   T   T   T
  0.5284897934682645  0.3354084527687139  0.6646302826014535   T   T   T
  0.5484370065330517  0.6541621047892739  0.6474355676134084   T   T   T
 
  0.00000000E+00  0.00000000E+00  0.00000000E+00
  0.00000000E+00  0.00000000E+00  0.00000000E+00
  0.00000000E+00  0.00000000E+00  0.00000000E+00
  0.00000000E+00  0.00000000E+00  0.00000000E+00
  0.00000000E+00  0.00000000E+00  0.00000000E+00
  0.00000000E+00  0.00000000E+00  0.00000000E+00
  0.00000000E+00  0.00000000E+00  0.00000000E+00
  0.00000000E+00  0.00000000E+00  0.00000000E+00
  0.00000000E+00  0.00000000E+00  0.00000000E+00
  0.00000000E+00  0.00000000E+00  0.00000000E+00
  0.00000000E+00  0.00000000E+00  0.00000000E+00
