 grapheneOpt                            
   1.00000000000000     
     4.9327318175523995   -0.0046518033647224   -0.0031947731063583
    -2.4663481797620377    4.2763560089712618    0.0001742004406538
    -0.0380561783299373   -0.0148529349127998    5.7655615569762269
   C    H    O 
     8     2     1
Selective dynamics
Direct
  0.0000000000000000  0.0000000000000000  0.0731699990000010   F   F   F
  0.3333300050000005  0.1666699949999995  0.0731699990000010   F   F   F
  0.5000000000000000  0.0000000000000000  0.0731699990000010   F   F   F
  0.8333299760000017  0.1666699949999995  0.0731699990000010   F   F   F
  0.0000000000000000  0.5000000000000000  0.0731699990000010   F   F   F
  0.3333300050000005  0.6666700239999983  0.0731699990000010   F   F   F
  0.5000000000000000  0.5000000000000000  0.0731699990000010   F   F   F
  0.8333299760000017  0.6666700239999983  0.0731699990000010   F   F   F
  0.6891272071111786  0.1926591287029719  0.6580322489971430   T   T   T
  0.7109984603415320  0.5110915298536989  0.6537198118429952   T   T   T
  0.6678911426587930  0.3356041184791895  0.5531532940804734   T   T   T
 
  0.00000000E+00  0.00000000E+00  0.00000000E+00
  0.00000000E+00  0.00000000E+00  0.00000000E+00
  0.00000000E+00  0.00000000E+00  0.00000000E+00
  0.00000000E+00  0.00000000E+00  0.00000000E+00
  0.00000000E+00  0.00000000E+00  0.00000000E+00
  0.00000000E+00  0.00000000E+00  0.00000000E+00
  0.00000000E+00  0.00000000E+00  0.00000000E+00
  0.00000000E+00  0.00000000E+00  0.00000000E+00
  0.00000000E+00  0.00000000E+00  0.00000000E+00
  0.00000000E+00  0.00000000E+00  0.00000000E+00
  0.00000000E+00  0.00000000E+00  0.00000000E+00
