graphene+h2o
1.0
        4.9200000763         0.0000000000         0.0000000000
       -2.4600000381         4.2608450527         0.0000000000
        0.0000000000         0.0000000000         4.9200000763
    C    O    H
    8    1    2
Direct
     0.000000000         0.000000000         0.036589999
     0.333330005         0.166669995         0.036589999
     0.500000000         0.000000000         0.036589999
     0.833329976         0.166669995         0.036589999
     0.000000000         0.500000000         0.036589999
     0.333330005         0.666670024         0.036589999
     0.500000000         0.500000000         0.036589999
     0.833329976         0.666670024         0.036589999
     0.641820014         0.321269989         0.275429994
     0.477519989         0.220330000         0.449499995
     0.796660006         0.449620008         0.449570000
