 grapheneOpt+h2OP\(2)                   
   1.00000000000000     
     4.9265245590060092    0.0076709277579916   -0.0332549309910647
    -2.4566413797265345    4.2588775275803243    0.0178387609579325
    -0.0242465365038275    0.0029058618922095    5.1321797054595439
   C    O    H 
     8     1     2
Selective dynamics
Direct
  0.0000000000000000  0.0000000000000000  0.0731699990000010   F   F   F
  0.3333300050000005  0.1666699949999995  0.0731699990000010   F   F   F
  0.5000000000000000  0.0000000000000000  0.0731699990000010   F   F   F
  0.8333299760000017  0.1666699949999995  0.0731699990000010   F   F   F
  0.0000000000000000  0.5000000000000000  0.0731699990000010   F   F   F
  0.3333300050000005  0.6666700239999983  0.0731699990000010   F   F   F
  0.5000000000000000  0.5000000000000000  0.0731699990000010   F   F   F
  0.8333299760000017  0.6666700239999983  0.0731699990000010   F   F   F
  0.4898408756342906  0.4702896889266469  0.5616547794842617   T   T   T
  0.5363051917310347  0.3434618772034540  0.6762675438200301   T   T   T
  0.5539902072697469  0.6599992967640286  0.6607319534431618   T   T   T
 
  0.00000000E+00  0.00000000E+00  0.00000000E+00
  0.00000000E+00  0.00000000E+00  0.00000000E+00
  0.00000000E+00  0.00000000E+00  0.00000000E+00
  0.00000000E+00  0.00000000E+00  0.00000000E+00
  0.00000000E+00  0.00000000E+00  0.00000000E+00
  0.00000000E+00  0.00000000E+00  0.00000000E+00
  0.00000000E+00  0.00000000E+00  0.00000000E+00
  0.00000000E+00  0.00000000E+00  0.00000000E+00
  0.00000000E+00  0.00000000E+00  0.00000000E+00
  0.00000000E+00  0.00000000E+00  0.00000000E+00
  0.00000000E+00  0.00000000E+00  0.00000000E+00
