graphene33                              
   1.00000000000000     
     7.4049007477371891   -0.0000000000000000    0.0000000000000000
    -3.7024503738685945    6.4128321600403027   -0.0000000000000000
    -0.0000000000000000   -0.0000000000000000    7.9981699318255615
   C 
    18
Direct
 -0.0000000000000000  0.0000000000000000  0.0225000009999974
  0.2222200040000004  0.1111100019999967  0.0225000009999974
  0.3333300050000005 -0.0000000000000000  0.0225000009999974
  0.5555599930000028  0.1111100019999967  0.0225000009999974
  0.6666700239999983  0.0000000000000000  0.0225000009999974
  0.8888900279999987  0.1111100019999967  0.0225000009999974
 -0.0000000000000000  0.3333300050000005  0.0225000009999974
  0.2222200040000004  0.4444400069999972  0.0225000009999974
  0.3333300050000005  0.3333300050000005  0.0225000009999974
  0.5555599930000028  0.4444400069999972  0.0225000009999974
  0.6666700239999983  0.3333300050000005  0.0225000009999974
  0.8888900279999987  0.4444400069999972  0.0225000009999974
 -0.0000000000000000  0.6666700239999983  0.0225000009999974
  0.2222200040000004  0.7777799959999996  0.0225000009999974
  0.3333300050000005  0.6666700239999983  0.0225000009999974
  0.5555599930000028  0.7777799959999996  0.0225000009999974
  0.6666700239999983  0.6666700239999983  0.0225000009999974
  0.8888900279999987  0.7777799959999996  0.0225000009999974
 
  0.00000000E+00  0.00000000E+00  0.00000000E+00
  0.00000000E+00  0.00000000E+00  0.00000000E+00
  0.00000000E+00  0.00000000E+00  0.00000000E+00
  0.00000000E+00  0.00000000E+00  0.00000000E+00
  0.00000000E+00  0.00000000E+00  0.00000000E+00
  0.00000000E+00  0.00000000E+00  0.00000000E+00
  0.00000000E+00  0.00000000E+00  0.00000000E+00
  0.00000000E+00  0.00000000E+00  0.00000000E+00
  0.00000000E+00  0.00000000E+00  0.00000000E+00
  0.00000000E+00  0.00000000E+00  0.00000000E+00
  0.00000000E+00  0.00000000E+00  0.00000000E+00
  0.00000000E+00  0.00000000E+00  0.00000000E+00
  0.00000000E+00  0.00000000E+00  0.00000000E+00
  0.00000000E+00  0.00000000E+00  0.00000000E+00
  0.00000000E+00  0.00000000E+00  0.00000000E+00
  0.00000000E+00  0.00000000E+00  0.00000000E+00
  0.00000000E+00  0.00000000E+00  0.00000000E+00
  0.00000000E+00  0.00000000E+00  0.00000000E+00
