Global Parameters
  ISTART =  0           (Read existing wavefunction; if there)
  # ISPIN =  2           (Spin polarised DFT) 
   ICHARG =  2         (Non-self-consistent: GGA/LDA band structures)
 LREAL  = Auto          (Projection operators: automatic)
  ENCUT  =  500        (Cut-off energy for plane wave basis set, in eV) 
  PREC   =  Medium       (Precision level)  
 # EDIFF  = 0.1E-04       (Stopping-criterion for ELM)   
 # LWAVE  = .TRUE.        (Write WAVECAR or not)
 # LCHARG = .TRUE.        (Write CHGCAR or not) 
 # ADDGRID= .TRUE.        (Increase grid; helps GGA convergence) 
  # LVTOT  = .TRUE.      (Write total electrostatic potential into LOCPOT or not)
  # LVHAR  = .TRUE.      (Write ionic + Hartree electrostatic potential into LOCPOT or not)
  # NELECT =             (No. of electrons: charged cells; be careful)
  # LPLANE = .TRUE.      (Real space distribution; supercells)
  # NPAR   = 4           (Max is no. nodes; don't set for hybrids)
   SYMPREC = 1E-04 
Electronic Relaxation
  ISMEAR =  0            (Gaussian smearing; metals:1)
  SIGMA  =  0.1         (Smearing value in eV; metals:0.2)
  NELM   =  60           (Max electronic SCF steps)  
  NELMIN =  6            (Min electronic SCF steps)
  EDIFF  =  1E-04        (SCF energy convergence; in eV) 
  # GGA  =  PS           (PBEsol exchange-correlation)
  NELMDL = -5
Ionic Relaxation
  NSW    =  100          (Max electronic SCF steps)
  IBRION =  2            (Algorithm: 0-MD; 1-Quasi-New; 2-CG)
  ISIF   =  3            (Stress/relaxation: 2-Ions, 3-Shape/Ions/V, 4-Shape/Ions)
  EDIFFG = -2E-02        (Ionic convergence; eV/AA)
  # ISM =  2            (Symmetry: 0=none; 2=GGA; 3=hybrids)
 
