h2o                                     
   1.00000000000000     
     6.0029569195069836   -0.2959010846118438    0.9929637750500626
    -0.3016206821545548    5.4797210229237425   -0.1678572839483824
     0.9956822318113449   -0.1637159212093277    5.0629178978531870
   O    H 
     1     2
Direct
  0.4863869011485615  0.4899780797814710  0.5203570462403245
  0.4710039564776381  0.6324352798126781  0.4694678077611543
  0.6283891373737962  0.4947166214058556  0.5582951679985203
 
  0.00000000E+00  0.00000000E+00  0.00000000E+00
  0.00000000E+00  0.00000000E+00  0.00000000E+00
  0.00000000E+00  0.00000000E+00  0.00000000E+00
