h2o
1.0
       10.0000000000         0.0000000000         0.0000000000
        0.0000000000        10.0000000000         0.0000000000
        0.0000000000         0.0000000000        10.0000000000
    O    H
    1    2
Direct
     0.500000000         0.500000000         0.500000000
     0.489270002         0.610300004         0.493719995
     0.596509993         0.506829977         0.554400027
