graphite                                
   1.00000000000000     
     4.9165329680234011    0.0186669713966297   -0.0000000000000000
    -2.4421004125205266    4.2671759345527356   -0.0000000000000000
     0.0000000000000000    0.0000000000000000    3.2024054288474688
   C 
     8
Direct
 -0.0004618697479772  0.0004618697479761  0.0731699990000010
  0.3337918747479777  0.1662081252520234  0.0731699990000010
  0.4995381302520228  0.0004618697479761  0.0731699990000010
  0.8337918457479788  0.1662081252520234  0.0731699990000010
 -0.0004618697479772  0.5004618697479760  0.0731699990000010
  0.3337918747479777  0.6662081542520222  0.0731699990000010
  0.4995381302520229  0.5004618697479760  0.0731699990000010
  0.8337918457479788  0.6662081542520222  0.0731699990000010
 
  0.00000000E+00  0.00000000E+00  0.00000000E+00
  0.00000000E+00  0.00000000E+00  0.00000000E+00
  0.00000000E+00  0.00000000E+00  0.00000000E+00
  0.00000000E+00  0.00000000E+00  0.00000000E+00
  0.00000000E+00  0.00000000E+00  0.00000000E+00
  0.00000000E+00  0.00000000E+00  0.00000000E+00
  0.00000000E+00  0.00000000E+00  0.00000000E+00
  0.00000000E+00  0.00000000E+00  0.00000000E+00
