graphite                                
   1.00000000000000     
     4.9165329680234011    0.0186669713966297    0.0000000000000000
    -2.4421004125205266    4.2671759345527356    0.0000000000000000
     0.0000000000000000    0.0000000000000000    3.2024054288474688
   C 
     8
Direct
  0.9995381302520201  0.0004618697479728  0.0731699990000010
  0.3337918747479804  0.1662081252520267  0.0731699990000010
  0.4995381302520201  0.0004618697479728  0.0731699990000010
  0.8337918457479816  0.1662081252520267  0.0731699990000010
  0.9995381302520201  0.5004618697479728  0.0731699990000010
  0.3337918747479804  0.6662081542520255  0.0731699990000010
  0.4995381302520201  0.5004618697479728  0.0731699990000010
  0.8337918457479816  0.6662081542520255  0.0731699990000010
 
  0.00000000E+00  0.00000000E+00  0.00000000E+00
  0.00000000E+00  0.00000000E+00  0.00000000E+00
  0.00000000E+00  0.00000000E+00  0.00000000E+00
  0.00000000E+00  0.00000000E+00  0.00000000E+00
  0.00000000E+00  0.00000000E+00  0.00000000E+00
  0.00000000E+00  0.00000000E+00  0.00000000E+00
  0.00000000E+00  0.00000000E+00  0.00000000E+00
  0.00000000E+00  0.00000000E+00  0.00000000E+00
