graphite                                
   1.00000000000000     
     4.9041659392348134   -0.0000326247005073    0.0000000000000000
    -2.4521112233869977    4.2471159754046131    0.0000000000000000
     0.0000000000000000    0.0000000000000000    3.8427479285313408
   C 
     8
Direct
  0.9999971045909462  0.0000028954090538  0.0731699990000010
  0.3333329004090544  0.1666670995909456  0.0731699990000010
  0.4999971045909462  0.0000028954090538  0.0731699990000010
  0.8333328714090555  0.1666670995909456  0.0731699990000010
  0.9999971045909462  0.5000028954090538  0.0731699990000010
  0.3333329004090544  0.6666671285909445  0.0731699990000010
  0.4999971045909462  0.5000028954090538  0.0731699990000010
  0.8333328714090555  0.6666671285909445  0.0731699990000010
 
  0.00000000E+00  0.00000000E+00  0.00000000E+00
  0.00000000E+00  0.00000000E+00  0.00000000E+00
  0.00000000E+00  0.00000000E+00  0.00000000E+00
  0.00000000E+00  0.00000000E+00  0.00000000E+00
  0.00000000E+00  0.00000000E+00  0.00000000E+00
  0.00000000E+00  0.00000000E+00  0.00000000E+00
  0.00000000E+00  0.00000000E+00  0.00000000E+00
  0.00000000E+00  0.00000000E+00  0.00000000E+00
