Automatic mesh
0
Gama Centered
16 16 1
0 0 0
