graphite                                
   1.00000000000000     
     4.9288929426406298   -0.0000014501771684    0.0000000000000000
    -2.4644477271604930    4.2685457757748591    0.0000000000000000
     0.0000000000000000    0.0000000000000000    3.1544171945755202
   C 
     8
Direct
 -0.0000022965554836  0.0000022965554835  0.0731699990000010
  0.3333323015554841  0.1666676984445160  0.0731699990000010
  0.4999977034445164  0.0000022965554835  0.0731699990000010
  0.8333322725554854  0.1666676984445160  0.0731699990000010
 -0.0000022965554836  0.5000022965554836  0.0731699990000010
  0.3333323015554841  0.6666677274445146  0.0731699990000010
  0.4999977034445164  0.5000022965554836  0.0731699990000010
  0.8333322725554854  0.6666677274445146  0.0731699990000010
 
  0.00000000E+00  0.00000000E+00  0.00000000E+00
  0.00000000E+00  0.00000000E+00  0.00000000E+00
  0.00000000E+00  0.00000000E+00  0.00000000E+00
  0.00000000E+00  0.00000000E+00  0.00000000E+00
  0.00000000E+00  0.00000000E+00  0.00000000E+00
  0.00000000E+00  0.00000000E+00  0.00000000E+00
  0.00000000E+00  0.00000000E+00  0.00000000E+00
  0.00000000E+00  0.00000000E+00  0.00000000E+00
