graphite                                
   1.00000000000000     
     4.9045650382740771   -0.0000209106077411   -0.0000000000000000
    -2.4523006282047075    4.2474674623576227    0.0000000000000000
     0.0000000000000000   -0.0000000000000000    3.8439721781260108
   C 
     8
Direct
 -0.0000033424715810  0.0000033424715809  0.0731699990000010
  0.3333333474715816  0.1666666525284185  0.0731699990000010
  0.4999966575284190  0.0000033424715809  0.0731699990000010
  0.8333333184715825  0.1666666525284185  0.0731699990000010
 -0.0000033424715810  0.5000033424715808  0.0731699990000010
  0.3333333474715816  0.6666666815284175  0.0731699990000010
  0.4999966575284190  0.5000033424715808  0.0731699990000010
  0.8333333184715825  0.6666666815284175  0.0731699990000010
 
  0.00000000E+00  0.00000000E+00  0.00000000E+00
  0.00000000E+00  0.00000000E+00  0.00000000E+00
  0.00000000E+00  0.00000000E+00  0.00000000E+00
  0.00000000E+00  0.00000000E+00  0.00000000E+00
  0.00000000E+00  0.00000000E+00  0.00000000E+00
  0.00000000E+00  0.00000000E+00  0.00000000E+00
  0.00000000E+00  0.00000000E+00  0.00000000E+00
  0.00000000E+00  0.00000000E+00  0.00000000E+00
