graphite                                
   1.00000000000000     
     4.9260794228521894   -0.0000043540823867   -0.0000000000000000
    -2.4630434821219898    4.2661077442114692    0.0000000000000000
    -0.0000000000000000    0.0000000000000000    3.1979080059930607
   C 
     8
Direct
 -0.0000025811362982  0.0000025811362982  0.0731699990000010
  0.3333325861362988  0.1666674138637012  0.0731699990000010
  0.4999974188637018  0.0000025811362982  0.0731699990000010
  0.8333325571362998  0.1666674138637012  0.0731699990000010
 -0.0000025811362982  0.5000025811362983  0.0731699990000010
  0.3333325861362988  0.6666674428637002  0.0731699990000010
  0.4999974188637018  0.5000025811362983  0.0731699990000010
  0.8333325571362998  0.6666674428637002  0.0731699990000010
 
  0.00000000E+00  0.00000000E+00  0.00000000E+00
  0.00000000E+00  0.00000000E+00  0.00000000E+00
  0.00000000E+00  0.00000000E+00  0.00000000E+00
  0.00000000E+00  0.00000000E+00  0.00000000E+00
  0.00000000E+00  0.00000000E+00  0.00000000E+00
  0.00000000E+00  0.00000000E+00  0.00000000E+00
  0.00000000E+00  0.00000000E+00  0.00000000E+00
  0.00000000E+00  0.00000000E+00  0.00000000E+00
