graphite                                
   1.00000000000000     
     4.9256130563356191    0.0001701499977538    0.0000000000000000
    -2.4626591738972432    4.2657911110006905   -0.0000000000000000
    -0.0000000000000000   -0.0000000000000000    3.1998325677097545
   C 
     8
Direct
 -0.0000184597422806  0.0000184597422806  0.0731699990000010
  0.3333484647422811  0.1666515352577189  0.0731699990000010
  0.4999815402577193  0.0000184597422806  0.0731699990000010
  0.8333484357422823  0.1666515352577189  0.0731699990000010
 -0.0000184597422806  0.5000184597422805  0.0731699990000010
  0.3333484647422811  0.6666515642577177  0.0731699990000010
  0.4999815402577193  0.5000184597422805  0.0731699990000010
  0.8333484357422823  0.6666515642577177  0.0731699990000010
 
  0.00000000E+00  0.00000000E+00  0.00000000E+00
  0.00000000E+00  0.00000000E+00  0.00000000E+00
  0.00000000E+00  0.00000000E+00  0.00000000E+00
  0.00000000E+00  0.00000000E+00  0.00000000E+00
  0.00000000E+00  0.00000000E+00  0.00000000E+00
  0.00000000E+00  0.00000000E+00  0.00000000E+00
  0.00000000E+00  0.00000000E+00  0.00000000E+00
  0.00000000E+00  0.00000000E+00  0.00000000E+00
