graphene\(2)                            
   1.00000000000000     
     4.9371153480691454   -0.0000056627891868   -0.0000000000000000
    -2.4685625781036906    4.2756644814499900    0.0000000000000000
     0.0000000000000000    0.0000000000000000    9.9991051987194606
   C 
     8
Direct
 -0.0000021818787789  0.0000021818787789  0.0179999989999970
  0.3333321868787794  0.1666678131212206  0.0179999989999970
  0.4999978181212211  0.0000021818787789  0.0179999989999970
  0.8333321578787806  0.1666678131212206  0.0179999989999970
 -0.0000021818787789  0.5000021818787789  0.0179999989999970
  0.3333321868787794  0.6666678421212194  0.0179999989999970
  0.4999978181212211  0.5000021818787789  0.0179999989999970
  0.8333321578787806  0.6666678421212194  0.0179999989999970
 
  0.00000000E+00  0.00000000E+00  0.00000000E+00
  0.00000000E+00  0.00000000E+00  0.00000000E+00
  0.00000000E+00  0.00000000E+00  0.00000000E+00
  0.00000000E+00  0.00000000E+00  0.00000000E+00
  0.00000000E+00  0.00000000E+00  0.00000000E+00
  0.00000000E+00  0.00000000E+00  0.00000000E+00
  0.00000000E+00  0.00000000E+00  0.00000000E+00
  0.00000000E+00  0.00000000E+00  0.00000000E+00
