%BLOCK LATTICE_CART
       2.133609006277839      -1.231839734119921       0.000000000000000
      -0.000000000000000       2.463679468239841       0.000000000000000
       0.000000000000000       0.000000000000000       3.202409999999999
%ENDBLOCK LATTICE_CART

%BLOCK POSITIONS_FRAC
  C  -0.3333333333333333   0.3333333333333333  -0.0000000000000000
  C   0.3333333333333333  -0.3333333333333333  -0.0000000000000000
%ENDBLOCK POSITIONS_FRAC

%BLOCK BS_KPOINT_LIST
   0.0000000000000000   0.0000000000000000   0.0000000000000000       0.036363636363636
   0.0000000000000000   0.0000000000000000   0.0833333333333333       0.018181818181818
   0.0000000000000000   0.0000000000000000   0.1666666666666667       0.018181818181818
   0.0000000000000000   0.0000000000000000   0.2500000000000000       0.018181818181818
   0.0000000000000000   0.0000000000000000   0.3333333333333333       0.018181818181818
   0.0000000000000000   0.0000000000000000   0.4166666666666666       0.018181818181818
   0.0000000000000000   0.0000000000000000   0.5000000000000000       0.018181818181818
  -0.0303030303030303   0.0606060606060606   0.5000000000000000       0.018181818181818
  -0.0606060606060606   0.1212121212121212   0.5000000000000000       0.018181818181818
  -0.0909090909090909   0.1818181818181818   0.5000000000000000       0.018181818181818
  -0.1212121212121212   0.2424242424242424   0.5000000000000000       0.018181818181818
  -0.1515151515151515   0.3030303030303030   0.5000000000000000       0.018181818181818
  -0.1818181818181818   0.3636363636363636   0.5000000000000000       0.018181818181818
  -0.2121212121212121   0.4242424242424242   0.5000000000000000       0.018181818181818
  -0.2424242424242424   0.4848484848484848   0.5000000000000000       0.018181818181818
  -0.2727272727272727   0.5454545454545454   0.5000000000000000       0.018181818181818
  -0.3030303030303030   0.6060606060606060   0.5000000000000000       0.018181818181818
  -0.3333333333333333   0.6666666666666666   0.5000000000000000       0.036363636363636
  -0.3333333333333333   0.6666666666666666   0.4166666666666667       0.018181818181818
  -0.3333333333333333   0.6666666666666666   0.3333333333333334       0.018181818181818
  -0.3333333333333333   0.6666666666666666   0.2500000000000000       0.018181818181818
  -0.3333333333333333   0.6666666666666666   0.1666666666666667       0.018181818181818
  -0.3333333333333333   0.6666666666666666   0.0833333333333334       0.018181818181818
  -0.3333333333333333   0.6666666666666666   0.0000000000000000       0.018181818181818
  -0.3030303030303030   0.6060606060606061   0.0000000000000000       0.018181818181818
  -0.2727272727272727   0.5454545454545454   0.0000000000000000       0.018181818181818
  -0.2424242424242424   0.4848484848484848   0.0000000000000000       0.018181818181818
  -0.2121212121212121   0.4242424242424242   0.0000000000000000       0.018181818181818
  -0.1818181818181818   0.3636363636363637   0.0000000000000000       0.018181818181818
  -0.1515151515151515   0.3030303030303030   0.0000000000000000       0.018181818181818
  -0.1212121212121212   0.2424242424242424   0.0000000000000000       0.018181818181818
  -0.0909090909090909   0.1818181818181818   0.0000000000000000       0.018181818181818
  -0.0606060606060606   0.1212121212121212   0.0000000000000000       0.018181818181818
  -0.0303030303030303   0.0606060606060606   0.0000000000000000       0.018181818181818
   0.0000000000000000   0.0555555555555556   0.0000000000000000       0.018181818181818
   0.0000000000000000   0.1111111111111111   0.0000000000000000       0.018181818181818
   0.0000000000000000   0.1666666666666667   0.0000000000000000       0.018181818181818
   0.0000000000000000   0.2222222222222222   0.0000000000000000       0.018181818181818
   0.0000000000000000   0.2777777777777778   0.0000000000000000       0.018181818181818
   0.0000000000000000   0.3333333333333333   0.0000000000000000       0.018181818181818
   0.0000000000000000   0.3888888888888888   0.0000000000000000       0.018181818181818
   0.0000000000000000   0.4444444444444444   0.0000000000000000       0.018181818181818
   0.0000000000000000   0.5000000000000000   0.0000000000000000       0.018181818181818
   0.0000000000000000   0.5000000000000000   0.0833333333333333       0.018181818181818
   0.0000000000000000   0.5000000000000000   0.1666666666666667       0.018181818181818
   0.0000000000000000   0.5000000000000000   0.2500000000000000       0.018181818181818
   0.0000000000000000   0.5000000000000000   0.3333333333333333       0.018181818181818
   0.0000000000000000   0.5000000000000000   0.4166666666666666       0.018181818181818
   0.0000000000000000   0.5000000000000000   0.5000000000000000       0.018181818181818
  -0.0666666666666667   0.5333333333333333   0.5000000000000000       0.018181818181818
  -0.1333333333333333   0.5666666666666667   0.5000000000000000       0.018181818181818
  -0.2000000000000000   0.6000000000000000   0.5000000000000000       0.018181818181818
  -0.2666666666666667   0.6333333333333333   0.5000000000000000       0.018181818181818
%ENDBLOCK BS_KPOINT_LIST

%BLOCK KPOINTS_LIST
   0.4444444444444444   0.4444444444444444   0.4166666666666666       0.024691358024691
   0.4444444444444444   0.4444444444444444   0.2500000000000000       0.024691358024691
   0.4444444444444444   0.4444444444444444   0.0833333333333333       0.024691358024691
   0.4444444444444444   0.3333333333333334   0.4166666666666666       0.049382716049383
   0.4444444444444444   0.3333333333333334   0.2500000000000000       0.049382716049383
   0.4444444444444444   0.3333333333333334   0.0833333333333333       0.049382716049383
   0.4444444444444444   0.0000000000000000   0.4166666666666666       0.024691358024691
   0.4444444444444444   0.0000000000000000   0.2500000000000000       0.024691358024691
   0.4444444444444444   0.0000000000000000   0.0833333333333333       0.024691358024691
   0.4444444444444444  -0.1111111111111111   0.4166666666666666       0.049382716049383
   0.4444444444444444  -0.1111111111111111   0.2500000000000000       0.049382716049383
   0.4444444444444444  -0.1111111111111111   0.0833333333333333       0.049382716049383
   0.4444444444444444  -0.2222222222222222   0.4166666666666666       0.024691358024691
   0.4444444444444444  -0.2222222222222222   0.2500000000000000       0.024691358024691
   0.4444444444444444  -0.2222222222222222   0.0833333333333333       0.024691358024691
   0.3333333333333334   0.3333333333333334   0.4166666666666666       0.008230452674897
   0.3333333333333334   0.3333333333333334   0.2500000000000000       0.008230452674897
   0.3333333333333334   0.3333333333333334   0.0833333333333333       0.008230452674897
   0.3333333333333334   0.0000000000000000   0.4166666666666666       0.024691358024691
   0.3333333333333334   0.0000000000000000   0.2500000000000000       0.024691358024691
   0.3333333333333334   0.0000000000000000   0.0833333333333333       0.024691358024691
   0.3333333333333334  -0.1111111111111111   0.4166666666666666       0.049382716049383
   0.3333333333333334  -0.1111111111111111   0.2500000000000000       0.049382716049383
   0.3333333333333334  -0.1111111111111111   0.0833333333333333       0.049382716049383
   0.2222222222222222   0.0000000000000000   0.4166666666666666       0.024691358024691
   0.2222222222222222   0.0000000000000000   0.2500000000000000       0.024691358024691
   0.2222222222222222   0.0000000000000000   0.0833333333333333       0.024691358024691
   0.2222222222222222  -0.1111111111111111   0.4166666666666666       0.024691358024691
   0.2222222222222222  -0.1111111111111111   0.2500000000000000       0.024691358024691
   0.2222222222222222  -0.1111111111111111   0.0833333333333333       0.024691358024691
   0.1111111111111112   0.0000000000000000   0.4166666666666666       0.024691358024691
   0.1111111111111112   0.0000000000000000   0.2500000000000000       0.024691358024691
   0.1111111111111112   0.0000000000000000   0.0833333333333333       0.024691358024691
   0.0000000000000000   0.0000000000000000   0.4166666666666666       0.004115226337449
   0.0000000000000000   0.0000000000000000   0.2500000000000000       0.004115226337449
   0.0000000000000000   0.0000000000000000   0.0833333333333333       0.004115226337449
%ENDBLOCK KPOINTS_LIST

FIX_COM : false
%BLOCK IONIC_CONSTRAINTS
%ENDBLOCK IONIC_CONSTRAINTS

%BLOCK SPECIES_MASS
       C     12.0109996796
%ENDBLOCK SPECIES_MASS

%BLOCK SPECIES_POT
       C  C_00PBE.usp
%ENDBLOCK SPECIES_POT

%BLOCK SPECIES_LCAO_STATES
       C         2
%ENDBLOCK SPECIES_LCAO_STATES

