graphene33\(0\0\-1)                     
   1.00000000000000     
     7.3800001143999996    0.0000000000000000    0.0000000000000000
     3.6900000571999998    6.3912675790000000    0.0000000000000000
     0.0000000000000000    0.0000000000000000   10.0000000000000000
   C 
    18
Direct
  0.0000548652948921  0.0000548652948921  0.0000000000000000
  0.1110551367051045  0.1110551367051045  0.0000000000000000
  0.0000610298472118  0.3332292794991130  0.0000000000000000
  0.1111360387500397  0.4444414555713233  0.0000000000000000
 -0.0000260367500430  0.6666685754286723  0.0000000000000000
  0.1110489721527848  0.7778807215008871  0.0000000000000000
  0.3333839827611383  0.6665639298215791  0.0000000000000000
  0.4445461011784165  0.7777260182388618  0.0000000000000000
  0.3332292794991130  0.0000610298472118  0.0000000000000000
  0.4444414555713233  0.1111360387500397  0.0000000000000000
  0.3333745656778865  0.3333745656778865  0.0000000000000000
  0.4444259682017248  0.4444259682017248  0.0000000000000000
  0.6665639298215791  0.3333839827611383  0.0000000000000000
  0.7777260182388618  0.4445461011784165  0.0000000000000000
  0.6666840627982707  0.6666840627982707  0.0000000000000000
  0.7777354353221135  0.7777354353221135  0.0000000000000000
  0.6666685754286723 -0.0000260367500430  0.0000000000000000
  0.7778807215008871  0.1110489721527848  0.0000000000000000
 
  0.00000000E+00  0.00000000E+00  0.00000000E+00
  0.00000000E+00  0.00000000E+00  0.00000000E+00
  0.00000000E+00  0.00000000E+00  0.00000000E+00
  0.00000000E+00  0.00000000E+00  0.00000000E+00
  0.00000000E+00  0.00000000E+00  0.00000000E+00
  0.00000000E+00  0.00000000E+00  0.00000000E+00
  0.00000000E+00  0.00000000E+00  0.00000000E+00
  0.00000000E+00  0.00000000E+00  0.00000000E+00
  0.00000000E+00  0.00000000E+00  0.00000000E+00
  0.00000000E+00  0.00000000E+00  0.00000000E+00
  0.00000000E+00  0.00000000E+00  0.00000000E+00
  0.00000000E+00  0.00000000E+00  0.00000000E+00
  0.00000000E+00  0.00000000E+00  0.00000000E+00
  0.00000000E+00  0.00000000E+00  0.00000000E+00
  0.00000000E+00  0.00000000E+00  0.00000000E+00
  0.00000000E+00  0.00000000E+00  0.00000000E+00
  0.00000000E+00  0.00000000E+00  0.00000000E+00
  0.00000000E+00  0.00000000E+00  0.00000000E+00
