 grapheneVopt\(2)                       
   1.00000000000000     
     7.3800001143999996    0.0000000000000000    0.0000000000000000
     3.6900000571999998    6.3912675790000000    0.0000000000000000
     0.0000000000000000    0.0000000000000000   10.0000000000000000
   C    H 
    24     6
Selective dynamics
Direct
  0.0000599999999977  0.0000599999999977  0.0000000000000000   F   F   F
  0.1110500019999989  0.1110600009999985  0.0000000000000000   F   F   F
  0.0000599999999977  0.3332299890000030  0.0000000000000000   F   F   F
  0.1111399979999987  0.4444400069999972  0.0000000000000000   F   F   F
  0.9999700190000027  0.6666700239999983  0.0000000000000000   F   F   F
  0.1110500019999989  0.7778800130000008  0.0000000000000000   F   F   F
  0.3333800139999994  0.6665599939999964  0.0000000000000000   F   F   F
  0.4445500080000002  0.7777299879999973  0.0000000000000000   F   F   F
  0.3332299890000030  0.0000599999999977  0.0000000000000000   F   F   F
  0.4444400069999972  0.1111399979999987  0.0000000000000000   F   F   F
  0.3333700000000022  0.3333800139999994  0.0000000000000000   F   F   F
  0.4444299939999965  0.4444299939999965  0.0000000000000000   F   F   F
  0.6665599939999964  0.3333800139999994  0.0000000000000000   F   F   F
  0.7777299879999973  0.4445500080000002  0.0000000000000000   F   F   F
  0.6666799779999977  0.6666799779999977  0.0000000000000000   F   F   F
  0.7777299879999973  0.7777400020000016  0.0000000000000000   F   F   F
  0.6666700239999983  0.9999700190000027  0.0000000000000000   F   F   F
  0.7778800130000008  0.1110500019999989  0.0000000000000000   F   F   F
  0.4492652264636989  0.4242309842565141  0.3796058576257737   T   T   T
  0.6678546745811457  0.3152706478499521  0.3776705988883293   T   T   T
  0.7770723493730947  0.4246421939626105  0.3758499364252972   T   T   T
  0.6676867122103619  0.6432676900748844  0.3754005375211427   T   T   T
  0.4490832081985131  0.7522785609096728  0.3756896721177981   T   T   T
  0.3399824170259355  0.6427931805806053  0.3776376596623287   T   T   T
  0.3639926464409828  0.3387711989433916  0.3818520754849045   T   T   T
  0.7537404267817585  0.1444681483685855  0.3785532687821474   T   T   T
  0.9478892368087145  0.3393139603811599  0.3756658038195937   T   T   T
  0.7527994270080473  0.7289411598245120  0.3750104686020946   T   T   T
  0.3633378716169864  0.9230543107105620  0.3748640425322728   T   T   T
  0.1691821797385662  0.7283619361127460  0.3786511697413169   T   T   T
 
  0.00000000E+00  0.00000000E+00  0.00000000E+00
  0.00000000E+00  0.00000000E+00  0.00000000E+00
  0.00000000E+00  0.00000000E+00  0.00000000E+00
  0.00000000E+00  0.00000000E+00  0.00000000E+00
  0.00000000E+00  0.00000000E+00  0.00000000E+00
  0.00000000E+00  0.00000000E+00  0.00000000E+00
  0.00000000E+00  0.00000000E+00  0.00000000E+00
  0.00000000E+00  0.00000000E+00  0.00000000E+00
  0.00000000E+00  0.00000000E+00  0.00000000E+00
  0.00000000E+00  0.00000000E+00  0.00000000E+00
  0.00000000E+00  0.00000000E+00  0.00000000E+00
  0.00000000E+00  0.00000000E+00  0.00000000E+00
  0.00000000E+00  0.00000000E+00  0.00000000E+00
  0.00000000E+00  0.00000000E+00  0.00000000E+00
  0.00000000E+00  0.00000000E+00  0.00000000E+00
  0.00000000E+00  0.00000000E+00  0.00000000E+00
  0.00000000E+00  0.00000000E+00  0.00000000E+00
  0.00000000E+00  0.00000000E+00  0.00000000E+00
  0.00000000E+00  0.00000000E+00  0.00000000E+00
  0.00000000E+00  0.00000000E+00  0.00000000E+00
  0.00000000E+00  0.00000000E+00  0.00000000E+00
  0.00000000E+00  0.00000000E+00  0.00000000E+00
  0.00000000E+00  0.00000000E+00  0.00000000E+00
  0.00000000E+00  0.00000000E+00  0.00000000E+00
  0.00000000E+00  0.00000000E+00  0.00000000E+00
  0.00000000E+00  0.00000000E+00  0.00000000E+00
  0.00000000E+00  0.00000000E+00  0.00000000E+00
  0.00000000E+00  0.00000000E+00  0.00000000E+00
  0.00000000E+00  0.00000000E+00  0.00000000E+00
  0.00000000E+00  0.00000000E+00  0.00000000E+00
