Automatic generation
0
Gama Centered
6 	6 	6
0.0 0.0 0.0
